Grasp exp. instance_n_15_m_5_id_5.lp tipoLifted 0 szPool 5 nIteration 20 alpha 0.2 
Academic license - for non-commercial use only
Read LP format model from file ../input/instancesGenerated/instance_n_15_m_5_id_5.lp
Reading time = 0.00 seconds
: 5 rows, 15 columns, 75 nonzeros
Optimize a model with 5 rows, 15 columns and 75 nonzeros
Variable types: 0 continuous, 15 integer (15 binary)
Coefficient statistics:
  Matrix range     [1e+00, 1e+01]
  Objective range  [1e+00, 9e+00]
  Bounds range     [1e+00, 1e+00]
  RHS range        [4e+01, 5e+01]
Found heuristic solution: objective 34.0000000

Explored 0 nodes (0 simplex iterations) in 0.00 seconds
Thread count was 1 (of 8 available processors)

Solution count 1: 34 
No other solutions better than 0

Solution limit reached
Best objective 3.400000000000e+01, best bound -, gap -
C_1:	 1.00 x_1  = 0.622685 + 6.00 x_2  = 0.000000 + 9.00 x_3  = 0.060185 + 2.00 x_4  = 1.000000 + 8.00 x_5  = 1.000000 + 8.00 x_6  = 0.770833 + 9.00 x_7  = 0.000000 + 8.00 x_8  = 0.000000 + 8.00 x_9  = 0.270833 + 4.00 x_10  = 1.000000 + 7.00 x_11  = 0.000000 + 10.00 x_12  = 1.000000 + 5.00 x_13  = 0.900463 + 1.00 x_14  = 0.000000 + 10.00 x_15  = 1.000000 <= 48.00
C_2:	 9.00 x_1  = 0.622685 + 6.00 x_2  = 0.000000 + 2.00 x_3  = 0.060185 + 5.00 x_4  = 1.000000 + 4.00 x_5  = 1.000000 + 9.00 x_6  = 0.770833 + 4.00 x_7  = 0.000000 + 8.00 x_8  = 0.000000 + 9.00 x_9  = 0.270833 + 10.00 x_10  = 1.000000 + 8.00 x_11  = 0.000000 + 2.00 x_12  = 1.000000 + 1.00 x_13  = 0.900463 + 3.00 x_14  = 0.000000 + 5.00 x_15  = 1.000000 <= 42.00
C_3:	 9.00 x_1  = 0.622685 + 5.00 x_2  = 0.000000 + 10.00 x_3  = 0.060185 + 9.00 x_4  = 1.000000 + 6.00 x_5  = 1.000000 + 7.00 x_6  = 0.770833 + 8.00 x_7  = 0.000000 + 5.00 x_8  = 0.000000 + 7.00 x_9  = 0.270833 + 6.00 x_10  = 1.000000 + 8.00 x_11  = 0.000000 + 5.00 x_12  = 1.000000 + 5.00 x_13  = 0.900463 + 4.00 x_14  = 0.000000 + 5.00 x_15  = 1.000000 <= 49.00
C_4:	 6.00 x_1  = 0.622685 + 4.00 x_2  = 0.000000 + 3.00 x_3  = 0.060185 + 7.00 x_4  = 1.000000 + 1.00 x_5  = 1.000000 + 6.00 x_6  = 0.770833 + 6.00 x_7  = 0.000000 + 6.00 x_8  = 0.000000 + 5.00 x_9  = 0.270833 + 6.00 x_10  = 1.000000 + 8.00 x_11  = 0.000000 + 4.00 x_12  = 1.000000 + 9.00 x_13  = 0.900463 + 8.00 x_14  = 0.000000 + 6.00 x_15  = 1.000000 <= 42.00
C_5:	 3.00 x_1  = 0.622685 + 8.00 x_2  = 0.000000 + 3.00 x_3  = 0.060185 + 3.00 x_4  = 1.000000 + 6.00 x_5  = 1.000000 + 8.00 x_6  = 0.770833 + 1.00 x_7  = 0.000000 + 4.00 x_8  = 0.000000 + 4.00 x_9  = 0.270833 + 7.00 x_10  = 1.000000 + 9.00 x_11  = 0.000000 + 1.00 x_12  = 1.000000 + 3.00 x_13  = 0.900463 + 5.00 x_14  = 0.000000 + 7.00 x_15  = 1.000000 <= 36.00
Solution initial: 55.701389 
Number Constraints Used in Cover:5
GRASP Method!
Number cuts repeat: 0
value: 55.422772
Number Constraints Used in Cover:13
GRASP Method!
Number cuts repeat: 0
value: 55.153846
Number Constraints Used in Cover:15
GRASP Method!
Number cuts repeat: 0
value: 55.153846
Number Constraints Used in Cover:23
GRASP Method!
Number cuts repeat: 0
value: 55.153846
Number Constraints Used in Cover:27
GRASP Method!
Number cuts repeat: 0
value: 55.153846
Number Constraints Used in Cover:29
GRASP Method!
Number cuts repeat: 0
value: 55.153846
Number Constraints Used in Cover:36
GRASP Method!
Number cuts repeat: 0
value: 55.153846
Number Constraints Used in Cover:40
GRASP Method!
Number cuts repeat: 0
value: 55.153846
Number Constraints Used in Cover:42
GRASP Method!
Number cuts repeat: 0
value: 55.153846
Number Constraints Used in Cover:43
GRASP Method!
Number cuts repeat: 0
value: 55.153846
Number Constraints Used in Cover:45
GRASP Method!
Number cuts repeat: 0
value: 55.153846
Number Constraints Used in Cover:47
GRASP Method!
Number cuts repeat: 0
value: 55.153846
Number Constraints Used in Cover:51
GRASP Method!
Number cuts repeat: 0
value: 55.153846
Number Constraints Used in Cover:53
GRASP Method!
Number cuts repeat: 0
value: 55.153846
Number Constraints Used in Cover:57
GRASP Method!
Number cuts repeat: 0
value: 55.153846
Number Constraints Used in Cover:57
GRASP Method!
Number cuts repeat: 0
value: 55.153846
Number Constraints Used in Cover:59
GRASP Method!
Number cuts repeat: 0
value: 55.153846
Number Constraints Used in Cover:61
GRASP Method!
Number cuts repeat: 0
value: 55.153846
Number Constraints Used in Cover:68
GRASP Method!
Number cuts repeat: 0
value: 55.153846
Number Constraints Used in Cover:72
GRASP Method!
Number cuts repeat: 0
value: 55.153846
Number Constraints Used in Cover:72
GRASP Method!
Number cuts repeat: 0
value: 55.153846
Number Constraints Used in Cover:72
GRASP Method!
Number cuts repeat: 0
value: 55.153846
Number Constraints Used in Cover:73
GRASP Method!
Number cuts repeat: 0
value: 55.153846
Number Constraints Used in Cover:75
GRASP Method!
Number cuts repeat: 0
value: 55.153846
Number Constraints Used in Cover:80
GRASP Method!
Number cuts repeat: 0
value: 55.153846
Number Constraints Used in Cover:80
GRASP Method!
Number cuts repeat: 0
value: 55.153846
Number Constraints Used in Cover:85
GRASP Method!
Number cuts repeat: 0
value: 55.153846
Number Constraints Used in Cover:85
GRASP Method!
Number cuts repeat: 0
value: 55.153846
Number Constraints Used in Cover:85
GRASP Method!
Number cuts repeat: 0
value: 55.153846
Number Constraints Used in Cover:86
GRASP Method!
Number cuts repeat: 0
value: 55.153846
Number Constraints Used in Cover:86
GRASP Method!
Number cuts repeat: 0
value: 55.153846
Number Constraints Used in Cover:86
GRASP Method!
Number cuts repeat: 0
value: 55.153846
Number Constraints Used in Cover:89
GRASP Method!
Number cuts repeat: 0
value: 55.153846
Number Constraints Used in Cover:89
GRASP Method!
Number cuts repeat: 0
value: 55.153846
Number Constraints Used in Cover:89
GRASP Method!
Number cuts repeat: 0
value: 55.153846
Number Constraints Used in Cover:91
GRASP Method!
Number cuts repeat: 0
value: 55.153846
Number Constraints Used in Cover:91
GRASP Method!
Number cuts repeat: 0
value: 55.153846
Number Constraints Used in Cover:91
GRASP Method!
Number cuts repeat: 0
value: 55.153846
Number Constraints Used in Cover:94
GRASP Method!
Number cuts repeat: 0
value: 55.153846
Number Constraints Used in Cover:94
GRASP Method!
Number cuts repeat: 0
value: 55.153846
Number Constraints Used in Cover:103
GRASP Method!
Number cuts repeat: 0
value: 55.153846
Number Constraints Used in Cover:109
GRASP Method!
Number cuts repeat: 0
value: 55.153846
Number Constraints Used in Cover:113
GRASP Method!
Number cuts repeat: 0
value: 55.153846
Number Constraints Used in Cover:117
GRASP Method!
Number cuts repeat: 0
value: 55.153846
Number Constraints Used in Cover:122
GRASP Method!
Number cuts repeat: 0
value: 55.153846
Number Constraints Used in Cover:122
GRASP Method!
Number cuts repeat: 0
value: 55.153846
Number Constraints Used in Cover:124
GRASP Method!
Number cuts repeat: 0
value: 55.153846
Number Constraints Used in Cover:124
GRASP Method!
Number cuts repeat: 0
value: 55.153846
Number Constraints Used in Cover:128
GRASP Method!
Number cuts repeat: 0
value: 55.153846
Number Constraints Used in Cover:136
GRASP Method!
Number cuts repeat: 0
value: 55.153846
Number Constraints Used in Cover:136
GRASP Method!
Number cuts repeat: 0
value: 55.153846
Number Constraints Used in Cover:137
GRASP Method!
Number cuts repeat: 0
value: 55.153846
Number Constraints Used in Cover:138
GRASP Method!
Number cuts repeat: 0
value: 55.153846
Number Constraints Used in Cover:138
GRASP Method!
Number cuts repeat: 0
value: 55.153846
Number Constraints Used in Cover:138
GRASP Method!
Number cuts repeat: 0
value: 55.153846
Number Constraints Used in Cover:138
GRASP Method!
Number cuts repeat: 0
value: 55.153846
Number Constraints Used in Cover:144
GRASP Method!
Number cuts repeat: 0
value: 55.153846
Number Constraints Used in Cover:146
GRASP Method!
Number cuts repeat: 0
value: 55.153846
Number Constraints Used in Cover:147
GRASP Method!
Number cuts repeat: 0
value: 55.153846
Number Constraints Used in Cover:147
GRASP Method!
Number cuts repeat: 0
value: 55.153846
Number Constraints Used in Cover:151
GRASP Method!
Number cuts repeat: 0
value: 55.153846
Number Constraints Used in Cover:153
GRASP Method!
Number cuts repeat: 0
value: 55.153846
Number Constraints Used in Cover:154
GRASP Method!
Number cuts repeat: 0
value: 55.153846
Number Constraints Used in Cover:158
GRASP Method!
Number cuts repeat: 0
value: 55.153846
Number Constraints Used in Cover:159
GRASP Method!
Number cuts repeat: 0
value: 55.153846
Number Constraints Used in Cover:159
GRASP Method!
Number cuts repeat: 0
value: 55.153846
Number Constraints Used in Cover:160
GRASP Method!
Number cuts repeat: 0
value: 55.153846
Number Constraints Used in Cover:161
GRASP Method!
Number cuts repeat: 0
value: 55.153846
Number Constraints Used in Cover:162
GRASP Method!
Number cuts repeat: 0
value: 55.153846
Number Constraints Used in Cover:162
GRASP Method!
Number cuts repeat: 0
value: 55.153846
Number Constraints Used in Cover:162
GRASP Method!
Number cuts repeat: 0
value: 55.153846
Number Constraints Used in Cover:162
GRASP Method!
Number cuts repeat: 0
value: 55.153846
Number Constraints Used in Cover:162
GRASP Method!
Number cuts repeat: 0
value: 55.153846
Number Constraints Used in Cover:162
GRASP Method!
Number cuts repeat: 0
value: 55.153846
Number Constraints Used in Cover:165
GRASP Method!
Number cuts repeat: 0
value: 55.153846
Number Constraints Used in Cover:166
GRASP Method!
Number cuts repeat: 0
value: 55.153846
Number Constraints Used in Cover:166
GRASP Method!
Number cuts repeat: 0
value: 55.153846
Number Constraints Used in Cover:168
GRASP Method!
Number cuts repeat: 0
value: 55.153846
Number Constraints Used in Cover:171
GRASP Method!
Number cuts repeat: 0
value: 55.153846
Number Constraints Used in Cover:171
GRASP Method!
Number cuts repeat: 0
value: 55.153846
Number Constraints Used in Cover:171
GRASP Method!
Number cuts repeat: 0
value: 55.153846
Number Constraints Used in Cover:171
GRASP Method!
Number cuts repeat: 0
value: 55.153846
Number Constraints Used in Cover:172
GRASP Method!
Number cuts repeat: 0
value: 55.153846
Number Constraints Used in Cover:174
GRASP Method!
Number cuts repeat: 0
value: 55.153846
Number Constraints Used in Cover:174
GRASP Method!
Number cuts repeat: 0
value: 55.153846
Number Constraints Used in Cover:174
GRASP Method!
Number cuts repeat: 0
value: 55.153846
Number Constraints Used in Cover:175
GRASP Method!
Number cuts repeat: 0
value: 55.153846
Number Constraints Used in Cover:176
GRASP Method!
Number cuts repeat: 0
value: 55.153846
Number Constraints Used in Cover:177
GRASP Method!
Number cuts repeat: 0
value: 55.153846
Number Constraints Used in Cover:177
GRASP Method!
Number cuts repeat: 0
value: 55.153846
Number Constraints Used in Cover:177
GRASP Method!
Number cuts repeat: 0
value: 55.153846
Number Constraints Used in Cover:177
GRASP Method!
Number cuts repeat: 0
value: 55.153846
Number Constraints Used in Cover:177
GRASP Method!
Number cuts repeat: 0
value: 55.153846
Number Constraints Used in Cover:179
GRASP Method!
Number cuts repeat: 0
value: 55.153846
Number Constraints Used in Cover:179
GRASP Method!
Number cuts repeat: 0
value: 55.153846
Number Constraints Used in Cover:179
GRASP Method!
Number cuts repeat: 0
value: 55.153846
Number Constraints Used in Cover:179
GRASP Method!
Number cuts repeat: 0
value: 55.153846
Number Constraints Used in Cover:179
GRASP Method!
Number cuts repeat: 0
value: 55.153846
Number Constraints Used in Cover:180
GRASP Method!
Number cuts repeat: 0
value: 55.153846
Number Constraints Used in Cover:180
GRASP Method!
Number cuts repeat: 0
value: 55.153846
Number Constraints Used in Cover:180
GRASP Method!
Number cuts repeat: 0
value: 55.153846
Number Constraints Used in Cover:181
GRASP Method!
Number cuts repeat: 0
value: 55.153846
Number Constraints Used in Cover:181
GRASP Method!
Number cuts repeat: 0
value: 55.153846
Number Constraints Used in Cover:182
GRASP Method!
Number cuts repeat: 0
value: 55.153846
Number Constraints Used in Cover:182
GRASP Method!
Number cuts repeat: 0
value: 55.153846
Number Constraints Used in Cover:182
GRASP Method!
Number cuts repeat: 0
value: 55.153846
Number Constraints Used in Cover:183
GRASP Method!
Number cuts repeat: 0
value: 55.153846
Number Constraints Used in Cover:183
GRASP Method!
Number cuts repeat: 0
value: 55.153846
Number Constraints Used in Cover:183
GRASP Method!
Number cuts repeat: 0
value: 55.153846
Number Constraints Used in Cover:183
GRASP Method!
Number cuts repeat: 0
value: 55.153846
Number Constraints Used in Cover:183
GRASP Method!
Number cuts repeat: 0
value: 55.153846
Number Constraints Used in Cover:183
GRASP Method!
Number cuts repeat: 0
value: 55.153846
Number Constraints Used in Cover:184
GRASP Method!
Number cuts repeat: 0
value: 55.153846
Number Constraints Used in Cover:186
GRASP Method!
Number cuts repeat: 0
value: 55.153846
Number Constraints Used in Cover:186
GRASP Method!
Number cuts repeat: 0
value: 55.153846
Number Constraints Used in Cover:186
GRASP Method!
Number cuts repeat: 0
value: 55.153846
Number Constraints Used in Cover:186
GRASP Method!
Number cuts repeat: 0
value: 55.153846
Number Constraints Used in Cover:186
GRASP Method!
Number cuts repeat: 0
value: 55.153846
Number Constraints Used in Cover:186
GRASP Method!
Number cuts repeat: 0
value: 55.153846
Number Constraints Used in Cover:186
GRASP Method!
Number cuts repeat: 0
value: 55.153846
Number Constraints Used in Cover:186
GRASP Method!
Number cuts repeat: 0
value: 55.153846
Number Constraints Used in Cover:186
GRASP Method!
Number cuts repeat: 0
value: 55.153846
Number Constraints Used in Cover:186
GRASP Method!
Number cuts repeat: 0
value: 55.153846
Number Constraints Used in Cover:186
GRASP Method!
Number cuts repeat: 0
value: 55.153846
Number Constraints Used in Cover:186
GRASP Method!
Number cuts repeat: 0
value: 55.153846
Number Constraints Used in Cover:186
GRASP Method!
Number cuts repeat: 0
value: 55.153846
Number Constraints Used in Cover:188
GRASP Method!
Number cuts repeat: 0
value: 55.153846
Number Constraints Used in Cover:188
GRASP Method!
Number cuts repeat: 0
value: 55.153846
Number Constraints Used in Cover:188
GRASP Method!
Number cuts repeat: 0
value: 55.153846
Number Constraints Used in Cover:190
GRASP Method!
Number cuts repeat: 0
value: 55.153846
Number Constraints Used in Cover:191
GRASP Method!
Number cuts repeat: 0
value: 55.153846
Number Constraints Used in Cover:193
GRASP Method!
Number cuts repeat: 0
value: 55.153846
Number Constraints Used in Cover:195
GRASP Method!
Number cuts repeat: 0
value: 55.153846
Number Constraints Used in Cover:195
GRASP Method!
Number cuts repeat: 0
value: 55.153846
Number Constraints Used in Cover:196
GRASP Method!
Number cuts repeat: 0
value: 55.153846
Number Constraints Used in Cover:198
GRASP Method!
Number cuts repeat: 0
value: 55.153846
Number Constraints Used in Cover:201
GRASP Method!
Number cuts repeat: 0
value: 55.153846
Number Constraints Used in Cover:205
GRASP Method!
Number cuts repeat: 0
value: 55.153846
Number Constraints Used in Cover:205
GRASP Method!
Number cuts repeat: 0
value: 55.153846
Number Constraints Used in Cover:206
GRASP Method!
Number cuts repeat: 0
value: 55.153846
Number Constraints Used in Cover:206
GRASP Method!
Number cuts repeat: 0
value: 55.153846
Number Constraints Used in Cover:208
GRASP Method!
Number cuts repeat: 0
value: 55.153846
Number Constraints Used in Cover:210
GRASP Method!
Number cuts repeat: 0
value: 55.153846
Number Constraints Used in Cover:214
GRASP Method!
Number cuts repeat: 0
value: 55.153846
Number Constraints Used in Cover:215
GRASP Method!
Number cuts repeat: 0
value: 55.153846
Number Constraints Used in Cover:216
GRASP Method!
Number cuts repeat: 0
value: 55.153846
Number Constraints Used in Cover:223
GRASP Method!
Number cuts repeat: 0
value: 55.153846
Number Constraints Used in Cover:227
GRASP Method!
Number cuts repeat: 0
value: 55.153846
Number Constraints Used in Cover:235
GRASP Method!
Number cuts repeat: 0
value: 55.153846
Number Constraints Used in Cover:240
GRASP Method!
Number cuts repeat: 0
value: 55.153846
Number Constraints Used in Cover:246
GRASP Method!
Number cuts repeat: 0
value: 55.153846
Number Constraints Used in Cover:253
GRASP Method!
Number cuts repeat: 0
value: 55.153846
Number Constraints Used in Cover:262
GRASP Method!
Number cuts repeat: 0
value: 55.153846
Number Constraints Used in Cover:273
GRASP Method!
Number cuts repeat: 0
value: 55.153846
Number Constraints Used in Cover:279
GRASP Method!
Number cuts repeat: 0
value: 55.153846
Number Constraints Used in Cover:284
GRASP Method!
Number cuts repeat: 0
value: 55.153846
Number Constraints Used in Cover:287
GRASP Method!
Number cuts repeat: 0
value: 55.153846
Number Constraints Used in Cover:295
GRASP Method!
Number cuts repeat: 0
value: 55.153846
Number Constraints Used in Cover:303
GRASP Method!
Number cuts repeat: 0
value: 55.153846
Number Constraints Used in Cover:309
GRASP Method!
Number cuts repeat: 0
value: 55.153846
Number Constraints Used in Cover:315
GRASP Method!
Number cuts repeat: 0
value: 55.153846
Number Constraints Used in Cover:321
GRASP Method!
Number cuts repeat: 0
value: 55.153846
Number Constraints Used in Cover:328
GRASP Method!
Number cuts repeat: 0
value: 55.153846
Number Constraints Used in Cover:331
GRASP Method!
Number cuts repeat: 0
value: 55.153846
Number Constraints Used in Cover:336
GRASP Method!
Number cuts repeat: 0
value: 55.153846
Number Constraints Used in Cover:341
GRASP Method!
Number cuts repeat: 0
value: 55.153846
Number Constraints Used in Cover:349
GRASP Method!
Number cuts repeat: 0
value: 55.153846
Number Constraints Used in Cover:359
GRASP Method!
Number cuts repeat: 0
value: 55.153846
Number Constraints Used in Cover:366
GRASP Method!
Number cuts repeat: 0
value: 55.153846
Number Constraints Used in Cover:373
GRASP Method!
Number cuts repeat: 0
value: 55.153846
Number Constraints Used in Cover:381
GRASP Method!
Number cuts repeat: 0
value: 55.153846
Number Constraints Used in Cover:389
GRASP Method!
Number cuts repeat: 0
value: 55.153846
Number Constraints Used in Cover:396
GRASP Method!
Number cuts repeat: 0
value: 55.153846
Number Constraints Used in Cover:404
GRASP Method!
Number cuts repeat: 0
value: 55.153846
Number Constraints Used in Cover:415
GRASP Method!
Number cuts repeat: 0
value: 55.153846
Number Constraints Used in Cover:422
GRASP Method!
Number cuts repeat: 0
value: 55.153846
Number Constraints Used in Cover:426
GRASP Method!
Number cuts repeat: 0
value: 55.153846
Number Constraints Used in Cover:435
GRASP Method!
Number cuts repeat: 0
value: 55.153846
Number Constraints Used in Cover:439
GRASP Method!
Number cuts repeat: 0
value: 55.153846
Number Constraints Used in Cover:443
GRASP Method!
Number cuts repeat: 0
value: 55.153846
Number Constraints Used in Cover:448
GRASP Method!
Number cuts repeat: 0
value: 55.153846
Number Constraints Used in Cover:454
GRASP Method!
Number cuts repeat: 0
value: 55.153846
Number Constraints Used in Cover:458
GRASP Method!
Number cuts repeat: 0
value: 55.153846
Number Constraints Used in Cover:462
GRASP Method!
Number cuts repeat: 0
value: 55.153846
Number Constraints Used in Cover:465
GRASP Method!
Number cuts repeat: 0
value: 55.153846
Number Constraints Used in Cover:476
GRASP Method!
Number cuts repeat: 0
value: 55.153846
Number Constraints Used in Cover:482
GRASP Method!
Number cuts repeat: 0
value: 55.153846
Number Constraints Used in Cover:483
GRASP Method!
Number cuts repeat: 0
value: 55.153846
Number Constraints Used in Cover:490
GRASP Method!
Number cuts repeat: 0
value: 55.153846
Number Constraints Used in Cover:499
GRASP Method!
Number cuts repeat: 0
value: 55.153846
Number Constraints Used in Cover:505
GRASP Method!
Number cuts repeat: 0
value: 55.153846
Number Constraints Used in Cover:510
GRASP Method!
Number cuts repeat: 0
value: 55.153846
Number Constraints Used in Cover:514
GRASP Method!
Number cuts repeat: 0
value: 55.153846
Number Constraints Used in Cover:515
GRASP Method!
Number cuts repeat: 0
value: 55.153846
Number Constraints Used in Cover:519
GRASP Method!
Number cuts repeat: 0
value: 55.153846
Number Constraints Used in Cover:523
GRASP Method!
Number cuts repeat: 0
value: 55.153846
Number Constraints Used in Cover:526
GRASP Method!
Number cuts repeat: 0
value: 55.153846
Number Constraints Used in Cover:526
GRASP Method!
Number cuts repeat: 0
value: 55.153846
Number Constraints Used in Cover:531
GRASP Method!
Number cuts repeat: 0
value: 55.153846
Number Constraints Used in Cover:539
GRASP Method!
Number cuts repeat: 0
value: 55.153846
Number Constraints Used in Cover:547
GRASP Method!
Number cuts repeat: 0
value: 55.153846
Number Constraints Used in Cover:549
GRASP Method!
Number cuts repeat: 0
value: 55.153846
Number Constraints Used in Cover:556
GRASP Method!
Number cuts repeat: 0
value: 55.153846
Number Constraints Used in Cover:559
GRASP Method!
Number cuts repeat: 0
value: 55.153846
Number Constraints Used in Cover:567
GRASP Method!
Number cuts repeat: 0
value: 55.153846
Number Constraints Used in Cover:574
GRASP Method!
Number cuts repeat: 0
value: 55.153846
Number Constraints Used in Cover:585
GRASP Method!
Number cuts repeat: 0
value: 55.153846
Number Constraints Used in Cover:591
GRASP Method!
Number cuts repeat: 0
value: 55.153846
Number Constraints Used in Cover:600
GRASP Method!
Number cuts repeat: 0
value: 55.153846
Number Constraints Used in Cover:605
GRASP Method!
Number cuts repeat: 0
value: 55.153846
Number Constraints Used in Cover:610
GRASP Method!
Number cuts repeat: 0
value: 55.153846
Number Constraints Used in Cover:618
GRASP Method!
Number cuts repeat: 0
value: 55.153846
Number Constraints Used in Cover:618
GRASP Method!
Number cuts repeat: 0
value: 55.153846
Number Constraints Used in Cover:621
GRASP Method!
Number cuts repeat: 0
value: 55.153846
Number Constraints Used in Cover:622
GRASP Method!
Number cuts repeat: 0
value: 55.153846
Number Constraints Used in Cover:628
GRASP Method!
Number cuts repeat: 0
value: 55.153846
Number Constraints Used in Cover:637
GRASP Method!
Number cuts repeat: 0
value: 55.153846
Number Constraints Used in Cover:638
GRASP Method!
Number cuts repeat: 0
value: 55.153846
Number Constraints Used in Cover:641
GRASP Method!
Number cuts repeat: 0
value: 55.153846
Number Constraints Used in Cover:643
GRASP Method!
Number cuts repeat: 0
value: 55.153846
Number Constraints Used in Cover:651
GRASP Method!
Number cuts repeat: 0
value: 55.153846
Number Constraints Used in Cover:654
GRASP Method!
Number cuts repeat: 0
value: 55.153846
Number Constraints Used in Cover:659
GRASP Method!
Number cuts repeat: 0
value: 55.153846
Number Cuts Final: 658
